analyze/results_flowersnark/final_miplib_symretope_if_extended_generating_set_cpx_v802__settings_final_nopeek_norelabel_extend_norestarts__3__square31.mps.gz.sol
solution status: optimal solution found
objective value:                                   15
x_1_1_18                                            1 	(obj:1)
x_1_19_13                                           1 	(obj:1)
x_14_19_5                                           1 	(obj:1)
x_14_24_8                                           1 	(obj:1)
x_19_1_13                                           1 	(obj:1)
x_19_14_5                                           1 	(obj:1)
x_19_19_2                                           1 	(obj:1)
x_19_21_3                                           1 	(obj:1)
x_21_19_2                                           1 	(obj:1)
x_22_21_1                                           1 	(obj:1)
x_22_22_10                                          1 	(obj:1)
x_23_19_1                                           1 	(obj:1)
x_23_20_1                                           1 	(obj:1)
x_23_21_1                                           1 	(obj:1)
x_24_14_8                                           1 	(obj:1)
y_18                                                1 	(obj:0)
y_13                                                2 	(obj:0)
y_10                                                1 	(obj:0)
y_8                                                 2 	(obj:0)
y_5                                                 2 	(obj:0)
y_3                                                 1 	(obj:0)
y_2                                                 2 	(obj:0)
y_1                                                 4 	(obj:0)
